c File: instances/36_0.55_1.col
c
c Description: Random graph of size 36 vertices and P(0.5499999999999999) of edges between any two vertices.
p col 36 630
e 1 2
e 1 3
e 1 4
e 1 6
e 1 8
e 1 9
e 1 15
e 1 18
e 1 20
e 1 21
e 1 23
e 1 26
e 1 28
e 1 29
e 1 30
e 1 32
e 1 33
e 1 36
e 2 4
e 2 5
e 2 6
e 2 8
e 2 9
e 2 14
e 2 15
e 2 17
e 2 18
e 2 20
e 2 21
e 2 22
e 2 24
e 2 25
e 2 26
e 2 27
e 2 29
e 2 31
e 2 33
e 2 34
e 2 35
e 2 36
e 3 5
e 3 6
e 3 7
e 3 8
e 3 11
e 3 14
e 3 15
e 3 16
e 3 17
e 3 19
e 3 21
e 3 22
e 3 25
e 3 26
e 3 28
e 3 30
e 3 31
e 3 34
e 3 35
e 4 6
e 4 7
e 4 8
e 4 9
e 4 12
e 4 13
e 4 14
e 4 17
e 4 18
e 4 19
e 4 20
e 4 22
e 4 23
e 4 24
e 4 25
e 4 26
e 4 28
e 4 32
e 5 6
e 5 7
e 5 13
e 5 14
e 5 15
e 5 16
e 5 18
e 5 19
e 5 22
e 5 25
e 5 27
e 5 29
e 5 36
e 6 7
e 6 8
e 6 10
e 6 12
e 6 14
e 6 15
e 6 17
e 6 18
e 6 19
e 6 23
e 6 24
e 6 25
e 6 26
e 6 29
e 6 30
e 6 31
e 6 33
e 7 8
e 7 9
e 7 10
e 7 11
e 7 12
e 7 14
e 7 16
e 7 22
e 7 23
e 7 24
e 7 28
e 7 29
e 7 30
e 7 32
e 7 36
e 8 12
e 8 13
e 8 14
e 8 15
e 8 16
e 8 19
e 8 20
e 8 21
e 8 22
e 8 23
e 8 24
e 8 25
e 8 26
e 8 29
e 8 33
e 8 35
e 8 36
e 9 10
e 9 15
e 9 16
e 9 17
e 9 18
e 9 20
e 9 21
e 9 22
e 9 23
e 9 24
e 9 26
e 9 27
e 9 28
e 9 31
e 9 32
e 9 34
e 9 35
e 10 12
e 10 13
e 10 15
e 10 16
e 10 17
e 10 18
e 10 19
e 10 20
e 10 21
e 10 24
e 10 25
e 10 26
e 10 28
e 10 29
e 10 30
e 10 36
e 11 12
e 11 14
e 11 16
e 11 18
e 11 19
e 11 22
e 11 23
e 11 24
e 11 25
e 11 26
e 11 27
e 11 30
e 11 31
e 11 33
e 11 34
e 11 35
e 11 36
e 12 14
e 12 15
e 12 19
e 12 20
e 12 21
e 12 22
e 12 23
e 12 24
e 12 25
e 12 28
e 12 30
e 12 31
e 12 35
e 13 15
e 13 16
e 13 18
e 13 19
e 13 20
e 13 24
e 13 25
e 13 29
e 13 30
e 13 31
e 13 33
e 13 34
e 13 36
e 14 17
e 14 18
e 14 19
e 14 20
e 14 22
e 14 23
e 14 29
e 14 30
e 14 31
e 14 32
e 14 33
e 14 35
e 14 36
e 15 16
e 15 17
e 15 18
e 15 22
e 15 23
e 15 25
e 15 27
e 15 29
e 15 33
e 15 34
e 15 35
e 15 36
e 16 18
e 16 21
e 16 27
e 16 28
e 16 29
e 16 30
e 16 35
e 16 36
e 17 18
e 17 21
e 17 25
e 17 26
e 17 31
e 17 34
e 17 36
e 18 19
e 18 21
e 18 22
e 18 23
e 18 25
e 18 27
e 18 30
e 18 31
e 18 32
e 18 33
e 18 35
e 19 22
e 19 23
e 19 24
e 19 25
e 19 26
e 19 29
e 19 30
e 19 31
e 19 32
e 19 34
e 20 21
e 20 22
e 20 23
e 20 25
e 20 26
e 20 27
e 20 29
e 20 31
e 20 32
e 20 34
e 20 36
e 21 22
e 21 23
e 21 28
e 21 29
e 21 31
e 21 32
e 21 33
e 21 35
e 21 36
e 22 23
e 22 24
e 22 25
e 22 27
e 22 29
e 22 32
e 22 33
e 22 34
e 23 25
e 23 26
e 23 27
e 23 28
e 23 29
e 23 30
e 23 32
e 23 34
e 23 35
e 23 36
e 24 25
e 24 29
e 24 31
e 24 33
e 24 34
e 25 28
e 25 30
e 25 31
e 25 33
e 25 36
e 26 27
e 26 31
e 26 32
e 26 35
e 26 36
e 27 28
e 27 31
e 27 33
e 27 34
e 27 35
e 28 29
e 28 30
e 28 31
e 28 34
e 28 35
e 29 30
e 29 31
e 29 33
e 30 31
e 30 32
e 30 33
e 30 34
e 30 35
e 30 36
e 31 33
e 31 34
e 31 35
e 31 36
e 32 34
e 32 35
e 33 34
e 33 36
e 34 35
e 34 36
e 35 36